Please solve the following SAT Problem encoded in DIMACS format, only return a single solution assignment without explanations, if there is any: 
p cnf 10 50
-6 -7 5 0
1 -2 -6 0
-6 -8 5 0
-8 5 2 0
1 -8 -3 0
6 -4 -10 0
5 -8 -4 0
4 -3 5 0
5 -8 1 0
-8 -2 5 0
-6 -2 -8 0
-2 5 3 0
-3 -6 -2 0
-6 1 8 0
-6 1 5 0
-4 5 1 0
-8 1 -4 0
-4 -9 1 0
10 -7 -8 0
4 2 -3 0
-9 -7 -8 0
10 -9 1 0
-6 1 -9 0
-4 2 -9 0
1 9 -8 0
-9 -7 5 0
-1 -2 -10 0
-6 5 -7 0
9 1 -10 0
-7 -9 -5 0
-6 5 -10 0
-2 -3 -7 0
-8 -3 1 0
1 -8 -10 0
-9 1 -6 0
-4 -9 10 0
1 -3 -7 0
1 -6 5 0
-4 -3 -7 0
5 -9 -8 0
-2 -10 5 0
5 3 -6 0
-3 8 -6 0
-9 7 -3 0
5 -4 -8 0
5 -9 10 0
-1 -3 -8 0
-10 -4 1 0
-9 -10 7 0
1 -7 -2 0

